NAME : instances/clustered-diverse-tsp/instance-42.tsp
COMMENT : No Comment
TYPE : TSP
DIMENSION: 50
EDGE_WEIGHT_TYPE : EUC_2D
NODE_COORD_SECTION
1 317 1798 
2 1307 1367 
3 717 675 
4 160 1714 
5 1203 1358 
6 820 1542 
7 711 764 
8 920 289 
9 683 595 
10 385 1675 
11 1007 1744 
12 1365 146 
13 199 1739 
14 942 136 
15 786 791 
16 1426 173 
17 1213 1394 
18 1194 1419 
19 1337 1278 
20 692 610 
21 975 149 
22 259 1771 
23 1326 1245 
24 771 1615 
25 969 1760 
26 733 659 
27 827 627 
28 335 1738 
29 349 1611 
30 1320 1428 
31 784 699 
32 1204 1255 
33 789 703 
34 735 738 
35 217 1839 
36 771 752 
37 686 654 
38 497 1676 
39 1544 197 
40 892 755 
41 1351 1269 
42 826 758 
43 947 324 
44 667 627 
45 386 1718 
46 1813 10 
47 1453 63 
48 461 1717 
49 1282 1393 
50 163 1669 
EOF
